BEGIN IONS
IUPAC=Not_Added
ID=NP_ID_294502
TITLE=EnergyCombined 10eV 20eV 40eV;[M+H]+;In-silico MS/MS by CFM-ID;
PEPMASS=86.03677943
CHARGE=1+
SMILES=O=C1CCCO1
InChIKey=YEJRWHAVMIAJKC-UHFFFAOYSA-N
39.02292652 145.0
41.03857658 260.0
43.05422664 249.0
69.0334912 184.0
87.04405588 164.0
END IONS

BEGIN IONS
IUPAC=Not_Added
ID=NP_ID_10512
TITLE=EnergyCombined 10eV 20eV 40eV;[M+H]+;In-silico MS/MS by CFM-ID;
PEPMASS=536.2046326
CHARGE=1+
SMILES=C=C1C(=O)OC2C3C(CO)=CC(=O)C3=C(C)CC(OC3CC(C)=C4C(=O)C=C(CO)C4C4OC(=O)C(C)C34)C12
InChIKey=AIGKJTXOWFMGLD-UHFFFAOYNA-N
229.0859207 124.0
241.0859207 238.0
243.1015708 246.0
259.0964854 149.0
261.1121354 245.0
435.180215 121.0
453.1907797 121.0
465.1907797 125.0
475.2115151 270.0
487.1751296 195.0
489.1907797 156.0
491.2064298 205.0
493.2220798 131.0
501.1907797 300.0
505.1856943 131.0
509.2169944 125.0
519.2013444 258.0
537.2119091 254.0
END IONS

BEGIN IONS
IUPAC=Not_Added
ID=NP_ID_12074
TITLE=EnergyCombined 10eV 20eV 40eV;[M+H]+;In-silico MS/MS by CFM-ID;
PEPMASS=114.0316941
CHARGE=1+
SMILES=C=C1C(=O)OCC1O
InChIKey=BFLSLERVRLOFCX-UHFFFAOYNA-N
39.02292652 177.0
43.01784114 195.0
45.0334912 167.0
53.00219107 134.0
55.01784114 246.0
57.0334912 137.0
59.01275576 285.0
61.02840582 200.0
69.0334912 178.0
97.02840582 281.0
115.0389705 133.0
END IONS

BEGIN IONS
IUPAC=Not_Added
ID=NP_ID_39832
TITLE=EnergyCombined 10eV 20eV 40eV;[M+H]+;In-silico MS/MS by CFM-ID;
PEPMASS=494.33961
CHARGE=1+
SMILES=CC(=O)OC1CCC2=C(C=CC34OC(=O)C5(CCC23C)C2CC(C)(C)CCC2(C)CCC54C)C1(C)C
InChIKey=SAARWBTZIDPOGF-UHFFFAOYNA-N
43.01784114 144.0
55.05422664 162.0
83.08552677 139.0
123.1168269 161.0
151.148127 211.0
391.3359278 176.0
393.2788068 219.0
395.2944569 221.0
407.2944569 169.0
409.310107 168.0
409.3464925 208.0
419.2944569 238.0
423.252986 128.0
433.310107 128.0
435.325757 263.0
449.3414071 137.0
451.3570572 147.0
453.3363217 300.0
477.3363217 300.0
479.3155863 210.0
495.3468864 249.0
END IONS

BEGIN IONS
IUPAC=Not_Added
ID=NP_ID_295968
TITLE=EnergyCombined 10eV 20eV 40eV;[M+H]+;In-silico MS/MS by CFM-ID;
PEPMASS=132.0422587
CHARGE=1+
SMILES=O=C1OC(CO)CC1O
InChIKey=QJAIXGZDDWCQCC-UHFFFAOYNA-N
41.03857658 165.0
43.01784114 155.0
45.0334912 133.0
55.01784114 176.0
57.0334912 224.0
69.0334912 121.0
71.04914126 243.0
85.02840582 215.0
97.02840582 300.0
115.0389705 221.0
133.0495352 300.0
END IONS

BEGIN IONS
IUPAC=Not_Added
ID=NP_ID_90168
TITLE=EnergyCombined 10eV 20eV 40eV;[M+H]+;In-silico MS/MS by CFM-ID;
PEPMASS=472.3188745
CHARGE=1+
SMILES=CC1CC2C(C)(CCC3(C)C4CCC56C(=O)OC(O)(CCC5C4(C)CCC23C)C6C)C(O)C1=O
InChIKey=QEIFWJNSWAONFY-UHFFFAOYNA-N
43.05422664 125.0
153.0910061 131.0
167.0702706 131.0
167.1066561 126.0
169.1223062 130.0
181.0859207 126.0
183.1015708 130.0
221.1172208 126.0
221.1536063 126.0
223.1328709 130.0
223.1692564 130.0
235.1328709 131.0
235.1692564 131.0
249.148521 126.0
249.1849065 126.0
251.164171 130.0
251.2005565 130.0
289.2162066 126.0
291.2318567 130.0
303.1954711 126.0
303.2318567 131.0
305.2111212 130.0
317.2111212 131.0
371.2580714 142.0
373.2737215 158.0
385.2737215 136.0
385.310107 138.0
387.2893715 128.0
411.325757 132.0
413.3050216 129.0
415.2842861 122.0
427.3206717 183.0
429.3363217 136.0
441.2999362 129.0
443.2792008 124.0
443.3155863 162.0
445.3312363 150.0
455.3155863 300.0
457.2948508 213.0
473.326151 300.0
END IONS

BEGIN IONS
IUPAC=Not_Added
ID=NP_ID_14621
TITLE=EnergyCombined 10eV 20eV 40eV;[M+H]+;In-silico MS/MS by CFM-ID;
PEPMASS=126.0680796
CHARGE=1+
SMILES=C=C1CC(C)(C)OC1=O
InChIKey=YYSDNLZCJQMZCZ-UHFFFAOYSA-N
39.02292652 243.0
41.03857658 154.0
55.05422664 300.0
57.0334912 154.0
57.06987671 158.0
83.08552677 133.0
END IONS

BEGIN IONS
IUPAC=Not_Added
ID=NP_ID_82650
TITLE=EnergyCombined 10eV 20eV 40eV;[M+H]+;In-silico MS/MS by CFM-ID;
PEPMASS=470.33961
CHARGE=1+
SMILES=CC1=C2C3(CCC1C)CCC1(CO)C2(CCC2C4(C)CCC(O)C(C)(C)C4CCC21C)OC3=O
InChIKey=OXYNISCJGRXIEX-UHFFFAOYNA-N
39.02292652 124.0
41.03857658 129.0
53.03857658 134.0
55.05422664 134.0
67.05422664 125.0
69.06987671 121.0
83.08552677 125.0
123.1168269 121.0
139.1117415 123.0
151.148127 121.0
153.1273916 122.0
167.1430416 123.0
207.1743418 121.0
315.1954711 124.0
353.2475067 122.0
369.2424213 121.0
383.2580714 130.0
407.3308424 144.0
409.2737215 134.0
409.3464925 230.0
411.2893715 161.0
413.3050216 125.0
423.325757 158.0
425.3414071 149.0
427.3570572 135.0
435.325757 300.0
437.3050216 237.0
439.3206717 121.0
441.2999362 128.0
441.3363217 125.0
443.3155863 121.0
443.3519718 121.0
453.3363217 156.0
455.3155863 140.0
471.3468864 197.0
END IONS

BEGIN IONS
IUPAC=Not_Added
ID=NP_ID_269594
TITLE=EnergyCombined 10eV 20eV 40eV;[M+H]+;In-silico MS/MS by CFM-ID;
PEPMASS=129.0425931
CHARGE=1+
SMILES=NC(=O)C1CCC(=O)O1
InChIKey=AOFIVJOZERJBKG-UHFFFAOYNA-N
39.02292652 149.0
41.00219107 166.0
41.03857658 254.0
43.01784114 137.0
53.00219107 128.0
55.01784114 166.0
57.0334912 243.0
58.02874017 121.0
69.0334912 194.0
85.02840582 300.0
95.01275576 226.0
112.0393049 138.0
113.0233204 132.0
END IONS

BEGIN IONS
IUPAC=Not_Added
ID=NP_ID_191142
TITLE=EnergyCombined 10eV 20eV 40eV;[M+H]+;In-silico MS/MS by CFM-ID;
PEPMASS=410.1576824
CHARGE=1+
SMILES=COC1C2OC(=O)C(C3(O)C4OC4C4(CC(C(C)O)C(=O)O4)C13C)C21OC1(C)C
InChIKey=UYCMJJRALQWCMJ-UHFFFAOYNA-N
41.03857658 139.0
51.02292652 145.0
59.04914126 132.0
69.0334912 149.0
71.04914126 174.0
97.02840582 279.0
249.1121354 133.0
251.0914 189.0
265.1070501 192.0
293.1019647 170.0
295.1176147 173.0
305.1019647 123.0
307.1176147 196.0
309.0968793 122.0
309.1332648 154.0
325.1281794 166.0
349.1281794 123.0
349.1645649 237.0
365.1594796 129.0
367.1751296 130.0
375.1438295 300.0
377.1230941 212.0
393.1543942 177.0
395.1336587 124.0
411.1649589 256.0
END IONS

BEGIN IONS
IUPAC=Not_Added
ID=NP_ID_129879
TITLE=EnergyCombined 10eV 20eV 40eV;[M+H]+;In-silico MS/MS by CFM-ID;
PEPMASS=168.1150298
CHARGE=1+
SMILES=CCCCC=CC1CCC(=O)O1
InChIKey=PMHUBJASDAOHML-UHFFFAOYNA-N
39.02292652 163.0
41.03857658 300.0
43.05422664 300.0
53.03857658 211.0
55.05422664 165.0
57.06987671 233.0
67.05422664 253.0
69.06987671 152.0
79.05422664 129.0
81.06987671 206.0
83.08552677 189.0
93.06987671 122.0
95.08552677 148.0
97.10117684 129.0
109.1011768 181.0
125.132477 149.0
169.1223062 300.0
END IONS

BEGIN IONS
IUPAC=Not_Added
ID=NP_ID_165848
TITLE=EnergyCombined 10eV 20eV 40eV;[M+H]+;In-silico MS/MS by CFM-ID;
PEPMASS=384.193674
CHARGE=1+
SMILES=CCOC1C2=C(C(=O)C3(C)C(=O)C=C(C)C23)C23CCCC(C)(C)C2C1OC3=O
InChIKey=FUCXDKONOSGQMZ-UHFFFAOYNA-N
29.03857658 141.0
39.02292652 192.0
41.03857658 192.0
55.05422664 201.0
83.08552677 121.0
109.0647913 128.0
289.1434356 121.0
311.164171 140.0
313.1798211 133.0
323.164171 169.0
323.2005565 137.0
339.1590856 300.0
341.1747357 300.0
341.2111212 130.0
355.1540003 141.0
355.1903858 128.0
357.1696503 129.0
357.2060358 175.0
359.1853004 124.0
367.1903858 300.0
369.1696503 182.0
385.2009504 300.0
END IONS

BEGIN IONS
IUPAC=Not_Added
ID=NP_ID_129718
TITLE=EnergyCombined 10eV 20eV 40eV;[M+H]+;In-silico MS/MS by CFM-ID;
PEPMASS=172.1099444
CHARGE=1+
SMILES=CCCCC1C(=O)OC(C)C1O
InChIKey=LLALEXXCKCFLES-UHFFFAOYNA-N
27.02292652 125.0
41.03857658 295.0
43.05422664 300.0
55.05422664 241.0
57.0334912 213.0
57.06987671 300.0
67.05422664 126.0
69.06987671 217.0
71.08552677 234.0
73.02840582 125.0
79.05422664 212.0
83.08552677 148.0
85.10117684 164.0
129.0546206 124.0
129.1273916 122.0
143.0702706 166.0
173.1172208 300.0
END IONS

BEGIN IONS
IUPAC=Not_Added
ID=NP_ID_83483
TITLE=EnergyCombined 10eV 20eV 40eV;[M+H]+;In-silico MS/MS by CFM-ID;
PEPMASS=356.1623739
CHARGE=1+
SMILES=CC1=CC(=O)C2(C)C(=O)C3=C(C(O)C4OC(=O)C35CCCC(C)(C)C45)C12
InChIKey=BLFSRDQHSHKSKE-UHFFFAOYNA-N
39.02292652 224.0
41.03857658 300.0
55.05422664 211.0
67.01784114 130.0
91.05422664 131.0
109.0647913 148.0
161.0597059 125.0
165.0910061 124.0
217.0859207 121.0
219.1015708 130.0
221.1172208 131.0
245.0808353 126.0
247.0964854 123.0
249.1121354 124.0
269.1172208 188.0
271.0600999 121.0
271.1328709 181.0
273.148521 138.0
289.1434356 121.0
295.1692564 195.0
311.1277855 127.0
313.1798211 141.0
315.1227001 122.0
321.148521 188.0
327.1590856 173.0
329.1747357 171.0
339.1590856 300.0
341.1383502 189.0
357.1696503 300.0
END IONS

BEGIN IONS
IUPAC=Not_Added
ID=NP_ID_141289
TITLE=EnergyCombined 10eV 20eV 40eV;[M+H]+;In-silico MS/MS by CFM-ID;
PEPMASS=184.1463299
CHARGE=1+
SMILES=CCCCCCC1(C)CCC(=O)O1
InChIKey=ALWUKGXLBSQSMA-UHFFFAOYNA-N
41.03857658 195.0
43.05422664 300.0
45.06987671 128.0
55.05422664 300.0
57.06987671 237.0
69.06987671 244.0
71.08552677 157.0
81.06987671 145.0
83.08552677 236.0
85.10117684 273.0
97.10117684 150.0
109.1011768 174.0
125.132477 130.0
141.1637771 135.0
143.1430416 137.0
185.1536063 300.0
END IONS

BEGIN IONS
IUPAC=Not_Added
ID=NP_ID_21477
TITLE=EnergyCombined 10eV 20eV 40eV;[M+H]+;In-silico MS/MS by CFM-ID;
PEPMASS=358.1416384
CHARGE=1+
SMILES=C=CC1(C)C=C2C(=O)C3(O)OC(=O)C4(CCC5CC5C34C)C2(O)C(=O)C1
InChIKey=BFIYCYMXCAPNLO-UHFFFAOYNA-N
51.02292652 147.0
53.03857658 300.0
55.05422664 202.0
65.03857658 185.0
67.05422664 139.0
81.06987671 192.0
249.0757499 133.0
261.0757499 124.0
289.0706646 149.0
329.1383502 130.0
331.1176147 164.0
331.1540003 217.0
333.1332648 132.0
341.1383502 300.0
343.1176147 201.0
359.1489149 300.0
END IONS

BEGIN IONS
IUPAC=Not_Added
ID=NP_ID_295985
TITLE=EnergyCombined 10eV 20eV 40eV;[M+H]+;In-silico MS/MS by CFM-ID;
PEPMASS=192.0786442
CHARGE=1+
SMILES=O=C1OC(Cc2ccccc2)CC1O
InChIKey=QDWGWZDQSRYLTG-UHFFFAOYNA-N
41.00219107 159.0
41.03857658 121.0
55.01784114 142.0
57.0334912 141.0
79.05422664 178.0
91.05422664 300.0
93.06987671 175.0
101.0385766 170.0
103.0542266 232.0
105.0698767 201.0
115.0389705 141.0
115.0542266 149.0
117.0698767 155.0
119.0855268 127.0
131.0855268 134.0
175.075356 129.0
193.0859207 300.0
END IONS

BEGIN IONS
IUPAC=Not_Added
ID=NP_ID_9820
TITLE=EnergyCombined 10eV 20eV 40eV;[M+H]+;In-silico MS/MS by CFM-ID;
PEPMASS=374.136553
CHARGE=1+
SMILES=C=C1C(=O)OC2C1C(OC(=O)C1(C)OC1C)CC(C=O)=C1C=CC(C)(O)C12
InChIKey=SGEYSJZTBIOROY-UHFFFAOYNA-N
69.0334912 147.0
71.04914126 300.0
97.02840582 121.0
99.04405588 188.0
203.1066561 123.0
229.0859207 192.0
231.1015708 260.0
241.0859207 294.0
243.1015708 181.0
247.0964854 148.0
259.0964854 300.0
261.1121354 132.0
277.1070501 141.0
313.1434356 133.0
317.1019647 133.0
327.1227001 168.0
329.1383502 156.0
339.1227001 250.0
345.1332648 127.0
375.1438295 221.0
END IONS

BEGIN IONS
IUPAC=Not_Added
ID=NP_ID_115423
TITLE=EnergyCombined 10eV 20eV 40eV;[M+H]+;In-silico MS/MS by CFM-ID;
PEPMASS=194.1306798
CHARGE=1+
SMILES=CCC=CCC=CCC1CCC(=O)O1
InChIKey=YNHBLISDDXOUDQ-UHFFFAOYNA-N
39.02292652 234.0
41.03857658 300.0
43.05422664 296.0
53.03857658 208.0
55.05422664 284.0
67.05422664 239.0
69.06987671 212.0
79.05422664 146.0
81.06987671 217.0
83.08552677 142.0
93.06987671 144.0
107.0855268 177.0
109.1011768 297.0
135.1168269 123.0
149.132477 135.0
151.148127 153.0
177.1273916 132.0
195.1379563 300.0
END IONS

BEGIN IONS
IUPAC=Not_Added
ID=NP_ID_31057
TITLE=EnergyCombined 10eV 20eV 40eV;[M+H]+;In-silico MS/MS by CFM-ID;
PEPMASS=383.2460439
CHARGE=1+
SMILES=CC(=O)N(C)C1C=C2C=CC3C(CCC45C(=O)OC(C)C4CCC35)C2(C)CC1
InChIKey=CLPGEJYIOBNCEC-UHFFFAOYNA-N
43.01784114 129.0
81.06987671 140.0
93.06987671 165.0
119.0855268 153.0
145.1011768 164.0
151.075356 126.0
165.0910061 121.0
191.1066561 121.0
217.1223062 121.0
235.148127 250.0
239.1794272 253.0
267.2107273 179.0
268.2059763 152.0
270.2216263 185.0
296.2372764 208.0
298.2529264 300.0
311.2005565 300.0
324.232191 300.0
326.2114556 168.0
338.2478411 201.0
340.2271056 121.0
340.2634911 167.0
342.2427557 300.0
356.2220202 124.0
366.2427557 181.0
368.2220202 244.0
384.2533204 300.0
END IONS

BEGIN IONS
IUPAC=Not_Added
ID=NP_ID_36900
TITLE=EnergyCombined 10eV 20eV 40eV;[M+H]+;In-silico MS/MS by CFM-ID;
PEPMASS=188.0684735
CHARGE=1+
SMILES=CC(=O)OC1CC(=O)OC1C(C)O
InChIKey=DBLLZDYDAFRZEE-UHFFFAOYNA-N
15.02292652 137.0
41.03857658 172.0
43.01784114 207.0
43.05422664 122.0
57.0334912 228.0
59.01275576 121.0
59.04914126 158.0
85.02840582 139.0
87.04405588 131.0
101.0233204 130.0
109.0284058 123.0
111.0440559 213.0
127.0389705 139.0
129.0546206 300.0
147.0651853 253.0
153.0546206 150.0
171.0651853 125.0
189.0757499 262.0
END IONS

BEGIN IONS
IUPAC=Not_Added
ID=NP_ID_10470
TITLE=EnergyCombined 10eV 20eV 40eV;[M+H]+;In-silico MS/MS by CFM-ID;
PEPMASS=346.1416384
CHARGE=1+
SMILES=C=C1C(=O)OC2C3C(C)=C(O)C(=O)C3=C(C)CC(OC(=O)C(C)C)C12
InChIKey=NLXVFIOZASEMRL-UHFFFAOYNA-N
39.02292652 155.0
41.03857658 238.0
43.05422664 300.0
55.01784114 222.0
55.05422664 145.0
71.04914126 300.0
177.0910061 178.0
203.1066561 212.0
215.1066561 123.0
219.1015708 162.0
231.1015708 122.0
243.1015708 132.0
257.0808353 147.0
259.0964854 277.0
275.1277855 130.0
277.1070501 125.0
301.1434356 140.0
303.1590856 140.0
319.1540003 121.0
331.1176147 133.0
347.1489149 247.0
END IONS

BEGIN IONS
IUPAC=Not_Added
ID=NP_ID_59542
TITLE=EnergyCombined 10eV 20eV 40eV;[M+H]+;In-silico MS/MS by CFM-ID;
PEPMASS=216.1361591
CHARGE=1+
SMILES=CC(C)CCC(O)C1CC(CO)OC1=O
InChIKey=OMQVQJDDMZUVNL-UHFFFAOYNA-N
41.03857658 147.0
43.01784114 124.0
55.05422664 300.0
57.0334912 152.0
57.06987671 300.0
69.06987671 122.0
71.08552677 300.0
83.08552677 139.0
85.02840582 123.0
101.0960915 137.0
115.0389705 129.0
127.0389705 164.0
127.1117415 139.0
129.0546206 178.0
145.0495352 125.0
155.0702706 132.0
155.1066561 149.0
155.1430416 130.0
157.0859207 124.0
157.1223062 131.0
173.1172208 125.0
181.1223062 300.0
199.1328709 300.0
217.1434356 293.0
END IONS

BEGIN IONS
IUPAC=Not_Added
ID=NP_ID_2038
TITLE=EnergyCombined 10eV 20eV 40eV;[M+H]+;In-silico MS/MS by CFM-ID;
PEPMASS=346.1416384
CHARGE=1+
SMILES=C=C(C)C(=O)OC1CC2(C)C=CC(O)(O2)C(C)=CC2OC(=O)C(=C)C21
InChIKey=RLZCMPYLILLRSS-UHFFFAOYNA-N
39.02292652 241.0
41.03857658 300.0
53.00219107 133.0
69.0334912 298.0
217.1223062 131.0
243.1015708 146.0
261.1121354 187.0
347.1489149 220.0
END IONS

BEGIN IONS
IUPAC=Not_Added
ID=NP_ID_58991
TITLE=EnergyCombined 10eV 20eV 40eV;[M+H]+;In-silico MS/MS by CFM-ID;
PEPMASS=186.0892089
CHARGE=1+
SMILES=CC(C)CC1CC(C(=O)O)C(=O)O1
InChIKey=ODKYFEYTVOPOOV-UHFFFAOYNA-N
41.00219107 121.0
41.03857658 134.0
53.00219107 135.0
53.03857658 133.0
55.01784114 167.0
55.05422664 300.0
57.06987671 300.0
59.08552677 128.0
65.03857658 145.0
67.05422664 179.0
69.06987671 245.0
71.08552677 166.0
97.10117684 160.0
125.0960915 152.0
139.075356 145.0
141.0910061 300.0
143.1066561 155.0
169.0859207 284.0
187.0964854 300.0
END IONS

BEGIN IONS
IUPAC=Not_Added
ID=NP_ID_182104
TITLE=EnergyCombined 10eV 20eV 40eV;[M+H]+;In-silico MS/MS by CFM-ID;
PEPMASS=380.2198887
CHARGE=1+
SMILES=COC(=O)C1CCC2C3(C)CCCC(C)(C)C3C(O)C(O)C23COC(=O)C13
InChIKey=CQVFTPIIQZMXKS-UHFFFAOYNA-N
55.05422664 183.0
69.06987671 126.0
123.1168269 134.0
197.0808353 123.0
301.1798211 202.0
303.1954711 300.0
305.2111212 300.0
321.2060358 140.0
331.1903858 199.0
333.2060358 300.0
335.2216859 207.0
337.237336 145.0
345.2060358 240.0
351.2166005 126.0
353.2322506 127.0
365.1958651 126.0
381.2271652 300.0
END IONS

BEGIN IONS
IUPAC=Not_Added
ID=NP_ID_195016
TITLE=EnergyCombined 10eV 20eV 40eV;[M+H]+;In-silico MS/MS by CFM-ID;
PEPMASS=220.0946882
CHARGE=1+
SMILES=COCC(O)C1OC(=O)C(OC)C1OC
InChIKey=SPOZMXNRQKNYRY-UHFFFAOYNA-N
15.02292652 131.0
41.00219107 163.0
43.01784114 170.0
45.0334912 300.0
47.04914126 180.0
57.0334912 280.0
59.04914126 265.0
71.04914126 164.0
73.06479133 126.0
75.04405588 128.0
77.05970595 122.0
101.0597059 124.0
115.0389705 148.0
117.0546206 131.0
171.0651853 173.0
173.0808353 152.0
189.0757499 247.0
203.0914 205.0
221.1019647 300.0
END IONS

BEGIN IONS
IUPAC=Not_Added
ID=NP_ID_83554
TITLE=EnergyCombined 10eV 20eV 40eV;[M+H]+;In-silico MS/MS by CFM-ID;
PEPMASS=372.193674
CHARGE=1+
SMILES=CC1=CC(=O)C2=C(C)CC(OC(=O)C3CCCCC3)C3C(C)C(=O)OC3C12
InChIKey=FHTQYKIKZYQVQL-UHFFFAOYNA-N
41.03857658 188.0
55.05422664 258.0
57.06987671 167.0
69.06987671 147.0
81.06987671 217.0
83.08552677 300.0
93.06987671 125.0
95.08552677 123.0
109.0647913 122.0
111.0804414 203.0
201.1273916 122.0
217.1223062 194.0
229.1223062 132.0
243.1015708 140.0
245.1172208 263.0
263.1277855 223.0
299.164171 128.0
327.1954711 145.0
329.1383502 132.0
329.2111212 144.0
331.1903858 121.0
345.2060358 125.0
373.2009504 235.0
END IONS

BEGIN IONS
IUPAC=Not_Added
ID=NP_ID_64866
TITLE=EnergyCombined 10eV 20eV 40eV;[M+H]+;In-silico MS/MS by CFM-ID;
PEPMASS=229.0884977
CHARGE=1+
SMILES=CC(CC1CC(C)OC1=O)=NNC(N)=S
InChIKey=SONUJDJSQFKHDW-UHFFFAOYNA-N
25.00727645 125.0
27.02292652 183.0
39.02292652 231.0
41.03857658 300.0
43.05422664 140.0
55.05422664 126.0
59.99024648 300.0
67.05422664 157.0
69.06987671 226.0
72.98549545 125.0
77.01679558 130.0
90.01204455 168.0
95.08552677 133.0
108.0807757 127.0
110.0964258 122.0
111.0440559 123.0
113.0597059 144.0
127.1229749 124.0
136.0756904 133.0
137.0597059 143.0
139.075356 243.0
141.0910061 149.0
171.1128041 164.0
184.0902949 138.0
212.0852095 144.0
213.0692251 146.0
230.0957742 160.0
END IONS

BEGIN IONS
IUPAC=Not_Added
ID=NP_ID_41162
TITLE=EnergyCombined 10eV 20eV 40eV;[M+H]+;In-silico MS/MS by CFM-ID;
PEPMASS=404.1835032
CHARGE=1+
SMILES=CC(=O)OCC12C(O)CC(C)C3(CC(c4ccoc4)OC3=O)C1CCCC21CO1
InChIKey=LOZYVHYKXUKJDA-UHFFFAOYNA-N
43.01784114 234.0
69.0334912 161.0
81.0334912 300.0
93.0334912 164.0
95.01275576 167.0
97.02840582 123.0
217.1223062 161.0
263.164171 140.0
289.1434356 137.0
327.1590856 300.0
345.1696503 214.0
359.1853004 147.0
363.180215 137.0
369.1696503 300.0
377.1958651 134.0
387.180215 208.0
389.1594796 135.0
405.1907797 143.0
END IONS

BEGIN IONS
IUPAC=Not_Added
ID=NP_ID_145352
TITLE=EnergyCombined 10eV 20eV 40eV;[M+H]+;In-silico MS/MS by CFM-ID;
PEPMASS=280.2402303
CHARGE=1+
SMILES=CCCCCCCCC=CCCCCC1CCC(=O)O1
InChIKey=MFJQEKNPFKHQHP-UHFFFAOYNA-N
41.03857658 245.0
43.05422664 175.0
85.10117684 142.0
99.1168269 142.0
113.132477 142.0
123.1168269 133.0
125.132477 127.0
127.148127 127.0
139.148127 142.0
153.1637771 142.0
155.1066561 123.0
167.1794272 142.0
179.1794272 124.0
181.1950772 201.0
195.2107273 178.0
207.2107273 163.0
209.2263773 128.0
219.2107273 300.0
221.2263773 300.0
235.2420274 159.0
237.2576775 173.0
251.2005565 123.0
263.236942 300.0
281.2475067 300.0
END IONS

BEGIN IONS
IUPAC=Not_Added
ID=NP_ID_83550
TITLE=EnergyCombined 10eV 20eV 40eV;[M+H]+;In-silico MS/MS by CFM-ID;
PEPMASS=348.1572885
CHARGE=1+
SMILES=CC1=CC(=O)C2=C(C)CC(OC(=O)C(C)C)C3C(C)C(=O)OC3C12O
InChIKey=ZTWGPLAYNYLUSL-UHFFFAOYNA-N
39.02292652 162.0
41.03857658 292.0
43.05422664 300.0
45.06987671 122.0
55.01784114 207.0
55.05422664 159.0
71.04914126 300.0
191.1066561 121.0
233.1172208 150.0
235.0964854 123.0
243.1015708 146.0
245.1172208 129.0
259.0964854 139.0
261.1121354 129.0
279.1227001 142.0
305.1747357 124.0
321.1696503 121.0
333.1332648 128.0
349.1645649 257.0
END IONS

BEGIN IONS
IUPAC=Not_Added
ID=NP_ID_1915
TITLE=EnergyCombined 10eV 20eV 40eV;[M+H]+;In-silico MS/MS by CFM-ID;
PEPMASS=328.1310737
CHARGE=1+
SMILES=C=C(C)C(=O)OC1CC(=C)C2=C(C(C)CC2=O)C2OC(=O)C(=C)C12
InChIKey=YHDIZVVHFZZTPO-UHFFFAOYNA-N
39.02292652 271.0
41.03857658 300.0
43.05422664 145.0
53.00219107 160.0
69.0334912 300.0
133.0647913 130.0
135.0804414 131.0
161.0960915 121.0
199.1117415 134.0
201.0910061 134.0
213.0910061 121.0
215.1066561 122.0
217.0859207 127.0
225.0910061 126.0
241.0859207 141.0
243.1015708 149.0
261.1121354 135.0
275.1277855 124.0
285.148521 125.0
311.1277855 131.0
313.1070501 134.0
329.1383502 220.0
END IONS

BEGIN IONS
IUPAC=Not_Added
ID=NP_ID_139488
TITLE=EnergyCombined 10eV 20eV 40eV;[M+H]+;In-silico MS/MS by CFM-ID;
PEPMASS=278.2245802
CHARGE=1+
SMILES=CCCCCC=CCC=CCCCCC1CCC(=O)O1
InChIKey=XHXKILDGHUJLNF-UHFFFAOYNA-N
41.03857658 250.0
43.05422664 175.0
83.08552677 125.0
85.10117684 125.0
97.10117684 141.0
111.1168269 141.0
121.1011768 125.0
123.1168269 150.0
125.132477 125.0
137.132477 122.0
151.075356 124.0
151.148127 141.0
155.1066561 125.0
165.1637771 141.0
177.1637771 123.0
179.1794272 200.0
193.1950772 174.0
195.1379563 125.0
205.1950772 160.0
207.2107273 122.0
217.1950772 300.0
219.2107273 300.0
233.2263773 155.0
235.2420274 172.0
249.1849065 125.0
261.221292 300.0
279.2318567 300.0
END IONS

BEGIN IONS
IUPAC=Not_Added
ID=NP_ID_69190
TITLE=EnergyCombined 10eV 20eV 40eV;[M+H]+;In-silico MS/MS by CFM-ID;
PEPMASS=371.2460439
CHARGE=1+
SMILES=CC(O)=NC1CCC2(C)C(=CCC3C2CCC24C(=O)OC(C)C2CCC34)C1
InChIKey=MFYNPKUAXIUSHE-UHFFFAOYNA-N
27.02292652 130.0
135.1168269 135.0
237.1637771 242.0
241.1950772 173.0
243.2107273 135.0
254.1903262 232.0
256.2059763 300.0
258.2216263 176.0
269.2263773 169.0
278.1903262 138.0
284.2372764 283.0
310.2165409 126.0
310.2529264 131.0
312.232191 244.0
326.2114556 124.0
326.2478411 166.0
328.2634911 154.0
330.2427557 171.0
344.2220202 122.0
344.2584057 125.0
354.2427557 300.0
356.2220202 161.0
372.2533204 286.0
END IONS

BEGIN IONS
IUPAC=Not_Added
ID=NP_ID_64862
TITLE=EnergyCombined 10eV 20eV 40eV;[M+H]+;In-silico MS/MS by CFM-ID;
PEPMASS=227.1269914
CHARGE=1+
SMILES=CC(CC1CC(C)(C)OC1=O)=NNC(N)=O
InChIKey=UBABVEFNJSJLQX-UHFFFAOYNA-N
41.03857658 124.0
44.0130901 300.0
55.05422664 300.0
57.0334912 135.0
57.06987671 161.0
65.03857658 140.0
67.05422664 270.0
69.06987671 300.0
73.06479133 124.0
74.03488817 142.0
113.0597059 191.0
127.075356 178.0
141.138625 141.0
143.081504 150.0
151.075356 140.0
153.0910061 300.0
155.1066561 234.0
167.1178895 205.0
168.1019051 131.0
169.0971541 128.0
185.1284542 300.0
210.1237032 136.0
211.1077188 133.0
228.1342679 121.0
END IONS

BEGIN IONS
IUPAC=Not_Added
ID=NP_ID_10471
TITLE=EnergyCombined 10eV 20eV 40eV;[M+H]+;In-silico MS/MS by CFM-ID;
PEPMASS=332.1623739
CHARGE=1+
SMILES=C=C1C(=O)OC2C3C(C)=C(O)C(=O)C3=C(C)CC(OCC(C)C)C12
InChIKey=HQZANFZSMKYQLR-UHFFFAOYNA-N
15.02292652 134.0
39.02292652 134.0
41.03857658 192.0
43.05422664 134.0
55.01784114 131.0
55.05422664 148.0
57.06987671 300.0
59.08552677 134.0
75.08044139 129.0
85.02840582 129.0
137.0597059 136.0
149.0597059 130.0
159.0440559 130.0
171.0440559 130.0
175.075356 137.0
199.075356 130.0
201.0910061 132.0
203.1066561 137.0
215.1066561 144.0
217.0859207 129.0
219.1015708 140.0
231.1015708 140.0
237.148521 130.0
243.1015708 152.0
249.148521 125.0
259.0964854 136.0
261.1121354 131.0
261.148521 131.0
263.164171 124.0
271.1328709 123.0
277.1070501 141.0
277.1798211 126.0
279.1590856 125.0
287.164171 139.0
289.1070501 135.0
289.1798211 163.0
291.1227001 134.0
293.1383502 129.0
303.1590856 130.0
305.1747357 137.0
307.1540003 130.0
315.1590856 234.0
317.1383502 135.0
333.1696503 294.0
END IONS

BEGIN IONS
IUPAC=Not_Added
ID=NP_ID_58065
TITLE=EnergyCombined 10eV 20eV 40eV;[M+H]+;In-silico MS/MS by CFM-ID;
PEPMASS=214.1205091
CHARGE=1+
SMILES=CC(C)CC(C)C1CC(C(=O)O)C(=O)O1
InChIKey=FEFSWWMYJINUMK-UHFFFAOYNA-N
53.00219107 142.0
55.01784114 223.0
55.05422664 239.0
57.06987671 300.0
59.08552677 144.0
69.06987671 137.0
81.06987671 125.0
83.08552677 300.0
85.10117684 292.0
95.08552677 253.0
97.10117684 216.0
99.1168269 205.0
113.0960915 131.0
115.1117415 124.0
125.0597059 167.0
125.132477 150.0
153.1273916 186.0
169.1223062 300.0
171.1379563 158.0
197.1172208 297.0
215.1277855 300.0
END IONS

BEGIN IONS
IUPAC=Not_Added
ID=NP_ID_192705
TITLE=EnergyCombined 10eV 20eV 40eV;[M+H]+;In-silico MS/MS by CFM-ID;
PEPMASS=364.2249741
CHARGE=1+
SMILES=COC1CC2(CCC3(C)C4CCC5CC4(CCC23)CC5(O)CO)C(=O)O1
InChIKey=JGJQQOVNDDCZBN-UHFFFAOYNA-N
153.0910061 125.0
181.1223062 125.0
203.1794272 129.0
245.1899918 194.0
249.1849065 158.0
255.1743418 300.0
257.1899918 148.0
259.2056419 260.0
263.2005565 129.0
275.2005565 164.0
277.2162066 121.0
289.1798211 150.0
291.1954711 139.0
303.1954711 300.0
305.2111212 145.0
315.1954711 167.0
321.2424213 139.0
329.2111212 300.0
333.2060358 275.0
335.2216859 128.0
347.2216859 137.0
349.2009504 140.0
365.2322506 300.0
END IONS

BEGIN IONS
IUPAC=Not_Added
ID=NP_ID_149865
TITLE=EnergyCombined 10eV 20eV 40eV;[M+H]+;In-silico MS/MS by CFM-ID;
PEPMASS=312.266445
CHARGE=1+
SMILES=CCCCCCCCCCCCCCC1C(=O)OC(C)C1O
InChIKey=BEEKFGLUGMQFSX-UHFFFAOYNA-N
27.02292652 133.0
43.05422664 161.0
57.0334912 274.0
73.02840582 134.0
75.04405588 136.0
129.0546206 153.0
183.2107273 189.0
195.2107273 133.0
197.2263773 300.0
209.2263773 267.0
211.2420274 272.0
219.2107273 300.0
225.2576775 137.0
237.221292 124.0
269.2838922 160.0
283.2267713 123.0
313.2737215 300.0
END IONS

BEGIN IONS
IUPAC=Not_Added
ID=NP_ID_80887
TITLE=EnergyCombined 10eV 20eV 40eV;[M+H]+;In-silico MS/MS by CFM-ID;
PEPMASS=362.1729386
CHARGE=1+
SMILES=CC12CCCC3(C)C1C(CC1(CO1)C31CCC3(CCOC3=O)O1)OC2=O
InChIKey=PNDHVSKKANSYRU-UHFFFAOYNA-N
39.02292652 185.0
41.03857658 211.0
51.02292652 295.0
53.03857658 153.0
55.05422664 155.0
65.03857658 300.0
69.0334912 137.0
71.08552677 137.0
99.04405588 125.0
105.0698767 297.0
109.0284058 278.0
113.0233204 126.0
115.0389705 191.0
165.0910061 145.0
167.1066561 136.0
205.1223062 132.0
207.1015708 139.0
243.1379563 148.0
263.1277855 124.0
265.1434356 151.0
317.1747357 189.0
319.1903858 272.0
333.1696503 136.0
345.1696503 142.0
347.1489149 125.0
363.180215 300.0
END IONS

BEGIN IONS
IUPAC=Not_Added
ID=NP_ID_129112
TITLE=EnergyCombined 10eV 20eV 40eV;[M+H]+;In-silico MS/MS by CFM-ID;
PEPMASS=268.1674592
CHARGE=1+
SMILES=CCCCC(C=CCC1OC(=O)CC1C)OC(C)=O
InChIKey=FZGIAQXFGBDFII-UHFFFAOYNA-N
39.02292652 138.0
41.03857658 300.0
43.01784114 149.0
43.05422664 300.0
55.05422664 136.0
57.06987671 140.0
71.04914126 122.0
99.04405588 130.0
111.0804414 135.0
113.0597059 152.0
113.0960915 145.0
125.0597059 177.0
127.075356 135.0
127.1117415 165.0
139.1117415 162.0
141.1273916 136.0
155.1066561 126.0
169.1223062 137.0
181.1223062 137.0
207.1379563 161.0
209.1536063 136.0
223.1692564 131.0
227.164171 265.0
251.164171 300.0
269.1747357 276.0
END IONS

BEGIN IONS
IUPAC=Not_Added
ID=NP_ID_18237
TITLE=EnergyCombined 10eV 20eV 40eV;[M+H]+;In-silico MS/MS by CFM-ID;
PEPMASS=334.1780239
CHARGE=1+
SMILES=C=C1CCC=C(C)C2(O)C(OC(=O)C(C)C)C3C(C)C(=O)OC3C12
InChIKey=DAVDCPBTHVRYEI-UHFFFAOYNA-N
41.03857658 288.0
43.05422664 300.0
55.01784114 206.0
55.05422664 194.0
71.04914126 300.0
121.1011768 146.0
229.1223062 127.0
247.1328709 163.0
261.148521 134.0
265.1434356 164.0
289.1798211 147.0
319.1540003 169.0
335.1853004 261.0
END IONS

BEGIN IONS
IUPAC=Not_Added
ID=NP_ID_83108
TITLE=EnergyCombined 10eV 20eV 40eV;[M+H]+;In-silico MS/MS by CFM-ID;
PEPMASS=234.1619799
CHARGE=1+
SMILES=CC1=C2CCC(C)C2CC2C(C1)OC(=O)C2C
InChIKey=LGGWYHIMEGQREQ-UHFFFAOYNA-N
43.05422664 157.0
51.02292652 123.0
121.1011768 157.0
123.1168269 174.0
135.1168269 266.0
137.132477 246.0
159.1168269 127.0
161.132477 300.0
163.148127 217.0
175.148127 125.0
179.1430416 208.0
189.1637771 300.0
191.1066561 163.0
207.1743418 141.0
217.1586917 251.0
219.1379563 238.0
235.1692564 300.0
END IONS

BEGIN IONS
IUPAC=Not_Added
ID=NP_ID_83558
TITLE=EnergyCombined 10eV 20eV 40eV;[M+H]+;In-silico MS/MS by CFM-ID;
PEPMASS=338.0921014
CHARGE=1+
SMILES=CC1=CC(=O)C2=C(C)CC(OC(=O)CCl)C3C(C)C(=O)OC3C12
InChIKey=NWASYGSCEIZROR-UHFFFAOYNA-N
48.98395416 300.0
58.9683041 139.0
76.97886878 228.0
121.0647913 128.0
189.0910061 163.0
191.1066561 150.0
215.1066561 129.0
217.1223062 227.0
219.1015708 156.0
219.1379563 167.0
221.1172208 163.0
233.1172208 124.0
235.1328709 139.0
243.1015708 148.0
245.1172208 300.0
263.1277855 300.0
265.0625984 125.0
293.0938985 135.0
295.1095486 129.0
303.1227001 123.0
311.1044632 121.0
321.0888132 300.0
339.0993778 239.0
END IONS

BEGIN IONS
IUPAC=Not_Added
ID=NP_ID_86379
TITLE=EnergyCombined 10eV 20eV 40eV;[M+H]+;In-silico MS/MS by CFM-ID;
PEPMASS=232.1463299
CHARGE=1+
SMILES=CC1=CCC2=C(C)CCC3C(C)C(=O)OC3C12
InChIKey=WBHVRMWEPJHOHP-UHFFFAOYNA-N
43.05422664 158.0
51.02292652 270.0
107.0855268 142.0
121.1011768 142.0
133.1011768 293.0
135.1168269 224.0
157.1011768 122.0
159.1168269 300.0
161.132477 226.0
173.132477 126.0
177.1273916 218.0
187.148127 300.0
189.0910061 126.0
205.1223062 149.0
205.1586917 138.0
207.1379563 163.0
215.1430416 258.0
217.1223062 225.0
233.1536063 300.0
END IONS

BEGIN IONS
IUPAC=Not_Added
ID=NP_ID_13855
TITLE=EnergyCombined 10eV 20eV 40eV;[M+H]+;In-silico MS/MS by CFM-ID;
PEPMASS=332.1987594
CHARGE=1+
SMILES=C=C1C2CCC(=O)C(CCC3C4(C)CCCC3(C)C(=O)O4)(C2)C1O
InChIKey=DLSVWIAYJFRFRS-UHFFFAOYNA-N
147.0804414 210.0
149.0960915 220.0
151.075356 201.0
153.0910061 151.0
159.0804414 121.0
161.0960915 284.0
163.1117415 255.0
165.0910061 280.0
167.1066561 157.0
177.0910061 122.0
179.1066561 208.0
181.1223062 138.0
191.1066561 300.0
271.2056419 144.0
297.1849065 289.0
333.2060358 300.0
END IONS

BEGIN IONS
IUPAC=Not_Added
ID=NP_ID_150895
TITLE=EnergyCombined 10eV 20eV 40eV;[M+H]+;In-silico MS/MS by CFM-ID;
PEPMASS=340.2977451
CHARGE=1+
SMILES=CCCCCCCCCCCCCCCCC1C(=O)OC(C)C1O
InChIKey=RUZVORNWDRKUFJ-UHFFFAOYNA-N
27.02292652 135.0
43.05422664 128.0
57.0334912 260.0
73.02840582 136.0
75.04405588 137.0
129.0546206 137.0
211.2420274 186.0
223.2420274 133.0
225.2576775 300.0
237.2576775 124.0
239.2733275 252.0
241.1798211 122.0
247.2420274 122.0
253.2889776 130.0
265.2525921 122.0
269.2111212 122.0
283.2267713 122.0
297.2424213 122.0
297.3151924 163.0
311.2580714 127.0
323.2944569 300.0
341.3050216 300.0
END IONS

BEGIN IONS
IUPAC=Not_Added
ID=NP_ID_72190
TITLE=EnergyCombined 10eV 20eV 40eV;[M+H]+;In-silico MS/MS by CFM-ID;
PEPMASS=350.2093241
CHARGE=1+
SMILES=CC1(C)C(O)CCC2(C)C(CC=C3C(=O)OCC3O)C3(CCC12)CO3
InChIKey=RAQQINDVFHKETO-UHFFFAOYNA-N
59.01275576 166.0
61.02840582 123.0
113.0233204 169.0
127.0389705 136.0
219.1743418 181.0
221.1899918 209.0
231.1743418 161.0
233.1899918 260.0
237.1849065 131.0
247.1692564 133.0
249.1849065 170.0
251.2005565 121.0
263.1277855 139.0
275.2005565 164.0
303.1954711 180.0
305.2111212 164.0
315.1954711 300.0
333.2060358 180.0
351.2166005 222.0
END IONS

BEGIN IONS
IUPAC=Not_Added
ID=NP_ID_24366
TITLE=EnergyCombined 10eV 20eV 40eV;[M+H]+;In-silico MS/MS by CFM-ID;
PEPMASS=336.266445
CHARGE=1+
SMILES=C=CCCCCCCCCCCCCCC=C1C(=O)OC(C)C1O
InChIKey=SKYACYVVYMWRPR-UHFFFAOYNA-N
41.03857658 126.0
57.0334912 219.0
73.02840582 132.0
75.04405588 134.0
127.0389705 123.0
181.1950772 131.0
183.1015708 131.0
209.2263773 153.0
219.2107273 199.0
221.2263773 300.0
223.2420274 225.0
235.2420274 161.0
249.2576775 126.0
293.2838922 146.0
319.2631568 300.0
321.2424213 300.0
337.2737215 300.0
END IONS

BEGIN IONS
IUPAC=Not_Added
ID=NP_ID_40298
TITLE=EnergyCombined 10eV 20eV 40eV;[M+H]+;In-silico MS/MS by CFM-ID;
PEPMASS=358.2144094
CHARGE=1+
SMILES=CC(=O)OC=C1C=CC=C(C)CC2OC(=O)C1C2C(C)CCC=C(C)C
InChIKey=PUSGGIDEGQFCFM-UHFFFAOYNA-N
43.01784114 215.0
55.05422664 300.0
67.05422664 162.0
69.06987671 217.0
113.132477 124.0
187.075356 161.0
215.1066561 133.0
229.1223062 131.0
243.1379563 201.0
255.2107273 200.0
257.1536063 277.0
271.2056419 134.0
283.1692564 218.0
299.2005565 186.0
313.2162066 261.0
315.2318567 136.0
317.2111212 184.0
359.2216859 300.0
END IONS

BEGIN IONS
IUPAC=Not_Added
ID=NP_ID_62124
TITLE=EnergyCombined 10eV 20eV 40eV;[M+H]+;In-silico MS/MS by CFM-ID;
PEPMASS=240.1361591
CHARGE=1+
SMILES=CC(C)OC(=O)C1C(C)CC2(C)CC1C(=O)O2
InChIKey=ATRYNTYJVRXRKI-UHFFFAOYNA-N
43.05422664 286.0
61.06479133 134.0
109.1011768 168.0
111.0440559 267.0
113.0597059 122.0
135.0804414 129.0
137.0597059 162.0
137.0960915 251.0
151.075356 197.0
153.0910061 300.0
155.1066561 206.0
163.075356 154.0
165.0910061 249.0
181.0859207 236.0
183.1015708 141.0
199.0964854 203.0
223.1328709 158.0
241.1434356 272.0
END IONS

BEGIN IONS
IUPAC=Not_Added
ID=NP_ID_37085
TITLE=EnergyCombined 10eV 20eV 40eV;[M+H]+;In-silico MS/MS by CFM-ID;
PEPMASS=324.1572885
CHARGE=1+
SMILES=CC(=O)OC1CC(C)(O)C2CC(O)C(C)=C2C2OC(=O)C(C)C12
InChIKey=HESYZWSIXKPOGQ-UHFFFAOYNA-N
43.01784114 152.0
67.01784114 122.0
233.1172208 135.0
235.1328709 121.0
237.148521 158.0
245.1172208 134.0
247.1328709 265.0
249.1121354 125.0
251.1277855 125.0
263.1277855 139.0
263.164171 155.0
265.1434356 300.0
267.1227001 139.0
279.1590856 121.0
283.1540003 166.0
289.1434356 300.0
291.1227001 146.0
307.1540003 146.0
325.1645649 166.0
END IONS

BEGIN IONS
IUPAC=Not_Added
ID=NP_ID_151766
TITLE=EnergyCombined 10eV 20eV 40eV;[M+H]+;In-silico MS/MS by CFM-ID;
PEPMASS=382.3446953
CHARGE=1+
SMILES=CCCCCCCCCCCCCCCCCCCC1CC(CO)OC1=O
InChIKey=BEEJEAMNZMMOAD-UHFFFAOYNA-N
39.02292652 203.0
41.03857658 254.0
43.01784114 141.0
43.05422664 129.0
57.0334912 195.0
59.01275576 133.0
59.04914126 136.0
61.02840582 132.0
75.04405588 134.0
129.0546206 133.0
253.2889776 141.0
267.3046277 300.0
281.3202777 300.0
293.3202777 253.0
295.3359278 191.0
321.3515779 237.0
323.3308424 137.0
337.3464925 133.0
339.3621425 143.0
351.325757 135.0
355.3570572 131.0
365.3414071 192.0
383.3519718 300.0
END IONS

BEGIN IONS
IUPAC=Not_Added
ID=NP_ID_92844
TITLE=EnergyCombined 10eV 20eV 40eV;[M+H]+;In-silico MS/MS by CFM-ID;
PEPMASS=352.2249741
CHARGE=1+
SMILES=CC1CCC2C(C)(CO)C(O)CCC2(C)C12CC1(COC(=O)C1)CO2
InChIKey=QHYFPLAXWXWDJP-UHFFFAOYNA-N
85.02840582 127.0
155.1066561 121.0
167.1430416 130.0
203.1430416 127.0
205.1586917 184.0
207.1743418 228.0
209.1899918 209.0
219.1743418 220.0
221.1899918 218.0
223.1692564 146.0
223.2056419 300.0
235.1692564 135.0
289.2162066 137.0
291.2318567 234.0
307.2267713 131.0
317.2111212 300.0
335.2216859 171.0
353.2322506 155.0
END IONS

BEGIN IONS
IUPAC=Not_Added
ID=NP_ID_12049
TITLE=EnergyCombined 10eV 20eV 40eV;[M+H]+;In-silico MS/MS by CFM-ID;
PEPMASS=248.1412445
CHARGE=1+
SMILES=C=C1C(=O)OC2CC=C(C)C(O)CC=C(C)CC12
InChIKey=XJHMNKQRSRSCRT-UHFFFAOYNA-N
157.1011768 129.0
159.1168269 141.0
161.132477 157.0
175.1117415 150.0
177.1273916 300.0
187.148127 244.0
203.1430416 183.0
213.1273916 151.0
215.1066561 220.0
231.1379563 222.0
249.148521 259.0
END IONS

BEGIN IONS
IUPAC=Not_Added
ID=NP_ID_80885
TITLE=EnergyCombined 10eV 20eV 40eV;[M+H]+;In-silico MS/MS by CFM-ID;
PEPMASS=364.1885886
CHARGE=1+
SMILES=CC12CCCC3(C)C1C(CC(O)(CO)C3(O)CCc1ccoc1)OC2=O
InChIKey=VZRWIDGDKDCZIY-UHFFFAOYNA-N
39.02292652 131.0
41.03857658 166.0
49.00727645 299.0
51.02292652 157.0
53.03857658 143.0
81.0334912 300.0
105.0698767 251.0
167.1066561 157.0
293.1747357 177.0
297.1696503 130.0
301.1434356 283.0
305.1383502 127.0
309.1696503 127.0
319.1903858 236.0
321.2060358 129.0
329.1747357 146.0
335.1853004 177.0
347.1853004 300.0
349.1645649 123.0
365.1958651 265.0
END IONS

BEGIN IONS
IUPAC=Not_Added
ID=NP_ID_92822
TITLE=EnergyCombined 10eV 20eV 40eV;[M+H]+;In-silico MS/MS by CFM-ID;
PEPMASS=264.2089301
CHARGE=1+
SMILES=CC1CCC2C(C)(C)CCCC2(C)C12CCC(=O)O2
InChIKey=AQNLWBUTGIPKLD-UHFFFAOYNA-N
55.05422664 265.0
57.06987671 140.0
67.05422664 131.0
123.1168269 151.0
137.132477 170.0
139.148127 187.0
149.132477 159.0
151.148127 205.0
153.1637771 190.0
175.148127 206.0
177.1637771 180.0
179.1794272 300.0
181.1950772 159.0
203.1794272 239.0
205.1950772 300.0
207.1743418 204.0
219.2107273 133.0
221.2263773 173.0
223.2056419 136.0
247.2056419 300.0
249.1849065 130.0
265.2162066 300.0
END IONS

BEGIN IONS
IUPAC=Not_Added
ID=NP_ID_90427
TITLE=EnergyCombined 10eV 20eV 40eV;[M+H]+;In-silico MS/MS by CFM-ID;
PEPMASS=346.1780239
CHARGE=1+
SMILES=CC1CC2OC(=O)C3=CCCC(C1(C)CCC1=CC(O)OC1=O)C32C
InChIKey=OOWMQASGDGGERT-UHFFFAOYNA-N
25.00727645 142.0
27.02292652 141.0
39.02292652 121.0
41.00219107 300.0
43.01784114 214.0
45.0334912 134.0
81.06987671 136.0
107.0855268 126.0
109.1011768 121.0
113.0233204 140.0
189.1637771 125.0
191.1066561 128.0
193.1223062 123.0
219.1379563 137.0
229.1950772 171.0
233.1536063 165.0
245.1536063 124.0
247.1692564 135.0
257.1899918 172.0
267.1379563 142.0
269.1536063 121.0
271.1692564 154.0
285.148521 128.0
285.1849065 134.0
299.164171 121.0
301.1798211 148.0
303.1954711 173.0
319.1903858 131.0
329.1747357 141.0
331.1540003 130.0
347.1853004 224.0
END IONS

BEGIN IONS
IUPAC=Not_Added
ID=NP_ID_64868
TITLE=EnergyCombined 10eV 20eV 40eV;[M+H]+;In-silico MS/MS by CFM-ID;
PEPMASS=315.1616627
CHARGE=1+
SMILES=CC(CC1CC(COCCC(C)C)OC1=O)=NNC(=N)S
InChIKey=DHJWXOMBAMDTBA-UHFFFAOYNA-N
26.00252542 153.0
41.03857658 134.0
55.05422664 300.0
57.06987671 170.0
59.99024648 300.0
69.06987671 207.0
71.08552677 300.0
89.09609146 166.0
90.01204455 133.0
139.075356 144.0
169.0971541 121.0
170.0811697 133.0
185.0920687 132.0
196.1695907 126.0
198.1124698 124.0
199.1328709 133.0
222.1488553 127.0
223.1328709 161.0
225.148521 200.0
227.164171 170.0
257.1859691 166.0
272.1791099 129.0
282.181218 127.0
299.14239 140.0
316.1689391 153.0
END IONS

BEGIN IONS
IUPAC=Not_Added
ID=NP_ID_14592
TITLE=EnergyCombined 10eV 20eV 40eV;[M+H]+;In-silico MS/MS by CFM-ID;
PEPMASS=332.1987594
CHARGE=1+
SMILES=C=C1CC(=O)C2C(C)(C)CCCC2(C)C1CC=C1CC(O)OC1=O
InChIKey=GQEHHMNYGFNQSN-UHFFFAOYNA-N
39.02292652 244.0
67.05422664 166.0
111.0076704 124.0
113.0233204 172.0
115.0389705 125.0
123.1168269 227.0
125.132477 122.0
127.0389705 121.0
189.1637771 201.0
191.1794272 174.0
205.1586917 134.0
213.1637771 129.0
217.1586917 130.0
219.1743418 300.0
221.1899918 125.0
229.1586917 145.0
231.1743418 216.0
233.1899918 179.0
241.1950772 133.0
243.2107273 300.0
245.1899918 142.0
253.1586917 127.0
257.1899918 239.0
271.1692564 122.0
285.1849065 154.0
287.2005565 128.0
289.2162066 138.0
303.1954711 140.0
305.2111212 146.0
333.2060358 239.0
END IONS

BEGIN IONS
IUPAC=Not_Added
ID=NP_ID_10372
TITLE=EnergyCombined 10eV 20eV 40eV;[M+H]+;In-silico MS/MS by CFM-ID;
PEPMASS=248.1412445
CHARGE=1+
SMILES=C=C1C(=O)OC2C1CCC1(C)CCC(C)(C=O)C21
InChIKey=OOHSZMHOXQXINH-UHFFFAOYNA-N
41.03857658 136.0
53.03857658 127.0
55.05422664 175.0
63.02292652 203.0
95.08552677 197.0
107.0855268 210.0
109.1011768 283.0
123.0804414 124.0
123.1168269 300.0
125.0960915 122.0
137.0960915 125.0
139.1117415 137.0
147.1168269 128.0
149.132477 300.0
151.1117415 136.0
165.1273916 133.0
175.148127 239.0
177.1273916 161.0
193.1223062 156.0
195.1379563 189.0
203.1430416 300.0
205.1586917 155.0
219.1379563 177.0
221.1536063 125.0
249.148521 300.0
END IONS

BEGIN IONS
IUPAC=Not_Added
ID=NP_ID_153422
TITLE=EnergyCombined 10eV 20eV 40eV;[M+H]+;In-silico MS/MS by CFM-ID;
PEPMASS=444.2640757
CHARGE=1+
SMILES=CCCCCCCCCCCCCCCCOP1(=O)OCC2COC(=O)C2=C(C)O1
InChIKey=LXXPVFWDVXTYTB-UHFFFAOYNA-N
39.02292652 207.0
63.02292652 147.0
65.03857658 180.0
81.0334912 240.0
83.01275576 180.0
83.04914126 284.0
85.02840582 300.0
85.06479133 137.0
97.02840582 170.0
97.06479133 190.0
111.0440559 149.0
123.0440559 234.0
125.0233204 214.0
141.0546206 300.0
145.0859207 142.0
225.2576775 132.0
END IONS

BEGIN IONS
IUPAC=Not_Added
ID=NP_ID_10231
TITLE=EnergyCombined 10eV 20eV 40eV;[M+H]+;In-silico MS/MS by CFM-ID;
PEPMASS=248.1412445
CHARGE=1+
SMILES=C=C1C(=O)OC2C1CCC(C)=C1CCC(C)(O)C12
InChIKey=RDJAFOWISVMOJY-UHFFFAOYNA-N
41.03857658 227.0
49.00727645 128.0
103.0542266 124.0
159.1168269 150.0
161.132477 161.0
175.1117415 133.0
177.1273916 300.0
187.148127 237.0
189.0910061 168.0
191.1066561 260.0
195.1379563 170.0
203.1430416 261.0
205.1223062 140.0
205.1586917 147.0
213.1273916 216.0
215.1066561 300.0
221.1536063 127.0
231.1379563 173.0
233.1172208 183.0
249.148521 300.0
END IONS

BEGIN IONS
IUPAC=Not_Added
ID=NP_ID_90446
TITLE=EnergyCombined 10eV 20eV 40eV;[M+H]+;In-silico MS/MS by CFM-ID;
PEPMASS=360.1572885
CHARGE=1+
SMILES=CC1CC2OC(=O)C3CCCC(C14CC(c1ccco1)OC4=O)C23CO
InChIKey=CKRQCQUCYGKPKV-UHFFFAOYNA-N
81.0334912 193.0
91.01784114 172.0
93.0334912 243.0
95.04914126 160.0
111.0440559 139.0
205.1223062 141.0
215.1066561 163.0
219.1379563 300.0
223.1328709 126.0
233.1172208 128.0
235.1328709 136.0
247.1328709 142.0
299.164171 300.0
315.1590856 300.0
317.1747357 172.0
325.1434356 300.0
327.1227001 129.0
333.1696503 165.0
343.1540003 158.0
361.1645649 242.0
END IONS

BEGIN IONS
IUPAC=Not_Added
ID=NP_ID_12048
TITLE=EnergyCombined 10eV 20eV 40eV;[M+H]+;In-silico MS/MS by CFM-ID;
PEPMASS=246.1255944
CHARGE=1+
SMILES=C=C1C(=O)OC2CC=C(C)C(=O)CC=C(C)CC12
InChIKey=REZOKDKHEDAFQF-UHFFFAOYNA-N
157.1011768 163.0
159.1168269 143.0
173.0960915 224.0
175.1117415 300.0
177.1273916 168.0
185.132477 137.0
187.1117415 165.0
201.1273916 193.0
203.1430416 162.0
229.1223062 205.0
END IONS

BEGIN IONS
IUPAC=Not_Added
ID=NP_ID_191586
TITLE=EnergyCombined 10eV 20eV 40eV;[M+H]+;In-silico MS/MS by CFM-ID;
PEPMASS=336.193674
CHARGE=1+
SMILES=COC1CC(=O)C2(CC(=O)OC2C=C(C)CCC=C(C)C)CC1O
InChIKey=RNXGMPDMYPADJI-UHFFFAOYNA-N
41.03857658 137.0
53.03857658 218.0
55.05422664 300.0
67.05422664 270.0
69.06987671 200.0
83.08552677 157.0
107.0855268 136.0
111.1168269 142.0
123.1168269 289.0
135.1168269 247.0
137.132477 177.0
139.075356 137.0
141.0910061 130.0
153.1273916 125.0
213.0757499 133.0
291.1954711 129.0
293.1383502 164.0
297.1696503 131.0
309.2060358 121.0
319.1903858 269.0
337.2009504 220.0
END IONS

BEGIN IONS
IUPAC=Not_Added
ID=NP_ID_149866
TITLE=EnergyCombined 10eV 20eV 40eV;[M+H]+;In-silico MS/MS by CFM-ID;
PEPMASS=354.2770097
CHARGE=1+
SMILES=CCCCCCCCCCCCCCC1C(=O)OC(C)C1OC(C)=O
InChIKey=GOOFLQFKCQQJMT-UHFFFAOYNA-N
43.01784114 300.0
57.0334912 147.0
61.02840582 124.0
99.04405588 138.0
115.0389705 140.0
117.0546206 138.0
121.0859207 124.0
183.2107273 167.0
195.2107273 126.0
197.2263773 300.0
209.2263773 151.0
211.2420274 218.0
219.2107273 141.0
223.2420274 143.0
225.2576775 152.0
239.236942 145.0
295.2631568 238.0
313.2737215 300.0
337.2737215 300.0
355.2842861 279.0
END IONS

BEGIN IONS
IUPAC=Not_Added
ID=NP_ID_90398
TITLE=EnergyCombined 10eV 20eV 40eV;[M+H]+;In-silico MS/MS by CFM-ID;
PEPMASS=332.1987594
CHARGE=1+
SMILES=CC1CC2OC(=O)C3(C)CCCC(C)(C23)C1(O)CCc1ccoc1
InChIKey=HQLLRHCTVDVUJB-UHFFFAOYNA-N
41.03857658 144.0
49.00727645 245.0
51.02292652 144.0
53.03857658 131.0
81.0334912 300.0
95.04914126 225.0
105.0698767 300.0
181.1223062 125.0
207.1379563 131.0
209.1536063 151.0
219.1379563 122.0
233.1536063 130.0
245.1536063 126.0
247.1692564 139.0
261.1849065 166.0
269.1536063 134.0
271.2056419 135.0
277.1798211 122.0
285.1849065 154.0
287.2005565 233.0
297.1849065 171.0
299.164171 133.0
305.2111212 230.0
315.1954711 212.0
317.1747357 128.0
333.2060358 278.0
END IONS

BEGIN IONS
IUPAC=Not_Added
ID=NP_ID_96129
TITLE=EnergyCombined 10eV 20eV 40eV;[M+H]+;In-silico MS/MS by CFM-ID;
PEPMASS=374.2820951
CHARGE=1+
SMILES=CC1OC(=O)C(CCCCCCCCCCCCCc2ccccc2)C1O
InChIKey=PBJHEIRFTYGACF-UHFFFAOYNA-N
27.02292652 135.0
57.0334912 227.0
73.02840582 138.0
75.04405588 140.0
91.05422664 183.0
129.0546206 133.0
245.2263773 165.0
257.2263773 127.0
259.2420274 278.0
273.2576775 158.0
283.2267713 165.0
297.2424213 157.0
331.2995423 155.0
357.2788068 300.0
375.2893715 300.0
END IONS

BEGIN IONS
IUPAC=Not_Added
ID=NP_ID_39238
TITLE=EnergyCombined 10eV 20eV 40eV;[M+H]+;In-silico MS/MS by CFM-ID;
PEPMASS=322.2144094
CHARGE=1+
SMILES=CC(=O)OC1CCC2(C)C(CCC(C)C23CCC(=O)O3)C1(C)C
InChIKey=HBMMUGYRQKNIBQ-UHFFFAOYNA-N
43.01784114 189.0
53.00219107 172.0
55.05422664 134.0
195.1379563 146.0
203.1794272 190.0
207.1379563 137.0
209.1536063 173.0
219.1743418 204.0
221.1899918 267.0
235.1692564 143.0
237.1849065 248.0
237.221292 121.0
239.2005565 163.0
247.1692564 123.0
261.1849065 300.0
263.2005565 130.0
277.2162066 122.0
279.2318567 123.0
281.2111212 298.0
305.2111212 300.0
323.2216859 225.0
END IONS

BEGIN IONS
IUPAC=Not_Added
ID=NP_ID_23123
TITLE=EnergyCombined 10eV 20eV 40eV;[M+H]+;In-silico MS/MS by CFM-ID;
PEPMASS=266.1518092
CHARGE=1+
SMILES=C=CC1CC(C)(C)C(O)C1=C(CO)C1COC(=O)C1
InChIKey=GJTQTWXAJMBHSP-UHFFFAOYNA-N
39.02292652 155.0
41.03857658 197.0
55.05422664 133.0
67.01784114 131.0
69.0334912 141.0
85.02840582 131.0
97.02840582 125.0
111.0440559 127.0
121.1011768 123.0
125.0233204 131.0
127.0389705 139.0
163.1117415 189.0
165.1273916 156.0
203.1430416 197.0
205.1586917 297.0
219.1379563 143.0
221.1172208 122.0
221.1536063 235.0
223.1328709 121.0
231.1379563 300.0
267.1590856 136.0
END IONS

BEGIN IONS
IUPAC=Not_Added
ID=NP_ID_37113
TITLE=EnergyCombined 10eV 20eV 40eV;[M+H]+;In-silico MS/MS by CFM-ID;
PEPMASS=288.1361591
CHARGE=1+
SMILES=CC(=O)OC1CC(C)=C2C=CC(C)=C2C2OC(=O)C(C)C12
InChIKey=XCPJIDFERYSZPG-UHFFFAOYNA-N
43.01784114 167.0
53.00219107 141.0
53.03857658 156.0
103.0542266 183.0
105.0698767 150.0
117.0698767 266.0
119.0855268 184.0
143.0855268 149.0
171.1168269 238.0
175.1117415 167.0
185.132477 128.0
199.1117415 134.0
201.1273916 151.0
203.1066561 135.0
203.1430416 177.0
213.0910061 167.0
215.1066561 133.0
229.1223062 300.0
231.1015708 262.0
243.1379563 153.0
245.1536063 145.0
247.1328709 300.0
271.1328709 260.0
289.1434356 300.0
END IONS

BEGIN IONS
IUPAC=Not_Added
ID=NP_ID_10896
TITLE=EnergyCombined 10eV 20eV 40eV;[M+H]+;In-silico MS/MS by CFM-ID;
PEPMASS=278.1154237
CHARGE=1+
SMILES=C=C1C(=O)OC2C=C(C)CCC3OC34CC(OC4O)C12
InChIKey=OURDJVKQQOPENX-UHFFFAOYNA-N
189.1273916 124.0
191.1066561 163.0
205.0859207 141.0
207.1015708 192.0
209.1172208 121.0
215.1066561 209.0
217.1223062 300.0
219.1015708 149.0
231.1015708 202.0
233.1172208 300.0
235.1328709 150.0
243.1015708 159.0
261.1121354 283.0
END IONS

BEGIN IONS
IUPAC=Not_Added
ID=NP_ID_41854
TITLE=EnergyCombined 10eV 20eV 40eV;[M+H]+;In-silico MS/MS by CFM-ID;
PEPMASS=306.1467238
CHARGE=1+
SMILES=CC(=O)OCC1=C2C=CC(C)(O)C2C2OC(=O)C(C)C2CC1
InChIKey=LQDDEDJLTRMOTI-UHFFFAOYNA-N
43.01784114 212.0
51.02292652 147.0
53.00219107 158.0
189.0910061 160.0
191.1066561 189.0
203.1430416 144.0
215.1066561 162.0
217.1223062 128.0
219.1379563 165.0
229.1223062 300.0
231.1015708 190.0
233.1172208 196.0
245.1536063 124.0
247.1328709 300.0
251.1277855 132.0
261.148521 187.0
265.1434356 154.0
271.1328709 190.0
289.1434356 151.0
307.1540003 264.0
END IONS

BEGIN IONS
IUPAC=Not_Added
ID=NP_ID_82707
TITLE=EnergyCombined 10eV 20eV 40eV;[M+H]+;In-silico MS/MS by CFM-ID;
PEPMASS=266.1518092
CHARGE=1+
SMILES=CC1=C2C3OC(=O)C(C)C3C(O)CC(C)(O)C2CC1
InChIKey=QYXPLYRFOBRWGH-UHFFFAOYNA-N
39.02292652 128.0
41.03857658 131.0
43.05422664 180.0
51.02292652 145.0
53.00219107 124.0
53.03857658 124.0
55.05422664 127.0
57.06987671 128.0
71.04914126 131.0
77.03857658 124.0
79.05422664 174.0
81.06987671 127.0
175.1117415 153.0
177.1273916 145.0
179.1430416 175.0
193.1223062 157.0
203.1430416 129.0
205.1586917 193.0
207.1015708 121.0
209.1172208 127.0
221.1536063 137.0
223.1692564 125.0
231.1379563 300.0
233.1172208 226.0
249.148521 132.0
267.1590856 233.0
END IONS

BEGIN IONS
IUPAC=Not_Added
ID=NP_ID_14512
TITLE=EnergyCombined 10eV 20eV 40eV;[M+H]+;In-silico MS/MS by CFM-ID;
PEPMASS=288.1361591
CHARGE=1+
SMILES=C=C1C=CC2=C(C)CC(OC(C)=O)C3C(C)C(=O)OC3C12
InChIKey=GDSJXJVNGSZTNG-UHFFFAOYNA-N
43.01784114 166.0
49.00727645 128.0
51.02292652 176.0
53.00219107 142.0
103.0542266 150.0
105.0698767 150.0
117.0698767 264.0
119.0855268 174.0
143.0855268 138.0
171.1168269 241.0
175.1117415 173.0
185.132477 126.0
199.1117415 135.0
201.1273916 156.0
203.1066561 134.0
203.1430416 183.0
213.0910061 151.0
215.1066561 132.0
229.1223062 300.0
231.1015708 220.0
243.1379563 151.0
245.1536063 146.0
247.1328709 300.0
271.1328709 261.0
273.1121354 166.0
289.1434356 300.0
END IONS

BEGIN IONS
IUPAC=Not_Added
ID=NP_ID_10217
TITLE=EnergyCombined 10eV 20eV 40eV;[M+H]+;In-silico MS/MS by CFM-ID;
PEPMASS=262.1205091
CHARGE=1+
SMILES=C=C1C(=O)OC2C1CCC(C)=C1C(=O)CC(CO)C12
InChIKey=SIBHJEGWJJXSGB-UHFFFAOYNA-N
133.1011768 191.0
173.0960915 190.0
175.075356 199.0
175.1117415 186.0
177.0910061 131.0
191.1066561 300.0
193.1223062 125.0
201.1273916 231.0
203.1066561 217.0
205.0859207 122.0
209.1172208 163.0
215.1066561 162.0
217.1223062 300.0
219.1379563 136.0
221.1172208 122.0
227.1066561 300.0
229.0859207 123.0
235.1328709 133.0
245.1172208 246.0
247.0964854 122.0
263.1277855 258.0
END IONS

BEGIN IONS
IUPAC=Not_Added
ID=NP_ID_18019
TITLE=EnergyCombined 10eV 20eV 40eV;[M+H]+;In-silico MS/MS by CFM-ID;
PEPMASS=332.1987594
CHARGE=1+
SMILES=C=C1CCC2C3(C)COC3CCC2(C)C1CC=C1C(=O)OCC1O
InChIKey=NSMZHQPCABSPEV-UHFFFAOYNA-N
43.01784114 154.0
59.01275576 225.0
63.04405588 130.0
113.0233204 220.0
115.0389705 128.0
203.1794272 152.0
215.1794272 181.0
217.1586917 126.0
219.1743418 237.0
229.1586917 158.0
231.1743418 300.0
233.1899918 159.0
243.1743418 152.0
245.1899918 131.0
253.1586917 145.0
257.1899918 143.0
273.1849065 127.0
303.1954711 167.0
315.1954711 300.0
317.1747357 259.0
333.2060358 300.0
END IONS

BEGIN IONS
IUPAC=Not_Added
ID=NP_ID_10051
TITLE=EnergyCombined 10eV 20eV 40eV;[M+H]+;In-silico MS/MS by CFM-ID;
PEPMASS=258.0892089
CHARGE=1+
SMILES=C=C1C(=O)OC2C1CC1OC(=O)C1=C1CC=C(C)C12
InChIKey=PKKVIBKJSUOHMK-UHFFFAOYNA-N
39.02292652 210.0
41.03857658 199.0
49.00727645 211.0
53.03857658 207.0
79.05422664 226.0
93.06987671 147.0
103.0542266 131.0
143.0855268 228.0
161.0960915 210.0
169.1011768 128.0
171.1168269 171.0
187.075356 247.0
189.0910061 282.0
197.0960915 272.0
205.0859207 149.0
211.075356 274.0
213.0910061 180.0
215.1066561 300.0
223.075356 223.0
231.1015708 153.0
241.0859207 150.0
259.0964854 300.0
END IONS

BEGIN IONS
IUPAC=Not_Added
ID=NP_ID_10450
TITLE=EnergyCombined 10eV 20eV 40eV;[M+H]+;In-silico MS/MS by CFM-ID;
PEPMASS=290.1518092
CHARGE=1+
SMILES=C=C1C(=O)OC2C3=C(C)CCC3C(C)CC(OC(C)=O)C12
InChIKey=RRNWMIXHLLIWET-UHFFFAOYNA-N
39.02292652 124.0
41.03857658 155.0
43.01784114 203.0
53.03857658 140.0
55.05422664 172.0
57.06987671 122.0
107.0855268 125.0
121.1011768 155.0
179.1430416 157.0
187.148127 151.0
201.1273916 122.0
203.1430416 179.0
205.1586917 191.0
215.1066561 137.0
229.1223062 172.0
231.1379563 300.0
245.1536063 286.0
247.1692564 148.0
249.148521 300.0
263.164171 121.0
273.148521 295.0
275.1277855 201.0
291.1590856 300.0
END IONS

BEGIN IONS
IUPAC=Not_Added
ID=NP_ID_84225
TITLE=EnergyCombined 10eV 20eV 40eV;[M+H]+;In-silico MS/MS by CFM-ID;
PEPMASS=321.1940083
CHARGE=1+
SMILES=CC1=CC(C2CCCN2CCCCC2CC(C)C(=O)O2)OC1=O
InChIKey=JLFBHOJKNSFNNB-UHFFFAOYNA-N
41.03857658 219.0
43.05422664 299.0
83.08552677 164.0
152.143376 189.0
176.143376 300.0
178.1590261 281.0
180.1746761 161.0
192.1382906 155.0
194.1539407 162.0
222.1488553 192.0
234.1488553 159.0
246.1488553 194.0
248.1645054 300.0
250.1801554 170.0
266.17507 167.0
276.1958055 219.0
304.1907201 160.0
322.2012848 212.0
END IONS

BEGIN IONS
IUPAC=Not_Added
ID=NP_ID_15293
TITLE=EnergyCombined 10eV 20eV 40eV;[M+H]+;In-silico MS/MS by CFM-ID;
PEPMASS=318.2194948
CHARGE=1+
SMILES=C=C1CC2(CCC3C4(C)CCCC3(C)C(=O)O4)CC1CCC2O
InChIKey=YDBOBIOOOYMTMR-UHFFFAOYNA-N
119.0855268 155.0
121.1011768 176.0
133.1011768 233.0
135.1168269 169.0
145.1011768 137.0
147.1168269 300.0
149.132477 182.0
165.0910061 138.0
177.1273916 300.0
181.1223062 190.0
257.2263773 148.0
259.1692564 127.0
261.1849065 286.0
273.1849065 122.0
273.221292 144.0
275.236942 127.0
283.2056419 176.0
285.1849065 139.0
301.2162066 171.0
303.1954711 166.0
319.2267713 300.0
END IONS

BEGIN IONS
IUPAC=Not_Added
ID=NP_ID_11308
TITLE=EnergyCombined 10eV 20eV 40eV;[M+H]+;In-silico MS/MS by CFM-ID;
PEPMASS=264.1361591
CHARGE=1+
SMILES=C=C1C(=O)OC2CC(C)(O)C3=CCC(C)(O)C3CC12
InChIKey=SKXYOUKPVUIPFP-UHFFFAOYNA-N
41.03857658 133.0
51.02292652 130.0
53.03857658 139.0
109.0647913 129.0
151.1117415 122.0
173.0960915 123.0
175.1117415 157.0
177.0910061 123.0
177.1273916 151.0
189.0910061 145.0
191.1066561 124.0
193.1223062 216.0
201.1273916 139.0
203.1430416 199.0
205.0859207 122.0
207.1015708 134.0
219.1379563 156.0
221.1172208 125.0
229.1223062 300.0
231.1015708 259.0
247.1328709 144.0
249.1121354 127.0
265.1434356 226.0
END IONS

BEGIN IONS
IUPAC=Not_Added
ID=NP_ID_296325
TITLE=EnergyCombined 10eV 20eV 40eV;[M+H]+;In-silico MS/MS by CFM-ID;
PEPMASS=314.1154237
CHARGE=1+
SMILES=O=C1OC2CCC3(CC(c4ccoc4)OC3=O)C3CCCC1=C23
InChIKey=PPKWGPSDACKOMK-UHFFFAOYNA-N
39.02292652 232.0
49.00727645 133.0
51.02292652 186.0
53.03857658 198.0
69.0334912 223.0
81.0334912 300.0
93.0334912 209.0
95.01275576 231.0
95.04914126 132.0
97.02840582 129.0
135.0440559 144.0
145.1011768 228.0
173.0960915 250.0
177.0910061 129.0
189.0910061 140.0
203.1066561 167.0
247.0964854 138.0
269.1172208 274.0
271.1328709 241.0
285.1121354 135.0
297.1121354 137.0
315.1227001 300.0
END IONS

BEGIN IONS
IUPAC=Not_Added
ID=NP_ID_9211
TITLE=EnergyCombined 10eV 20eV 40eV;[M+H]+;In-silico MS/MS by CFM-ID;
PEPMASS=278.1154237
CHARGE=1+
SMILES=C=C1C(=O)OC(C2=C(C)C(O)CC2=O)C1CCC(C)=O
InChIKey=XXYRTFCLQHKIDU-UHFFFAOYNA-N
39.02292652 189.0
41.03857658 198.0
49.00727645 130.0
53.03857658 192.0
55.05422664 136.0
65.03857658 135.0
67.01784114 148.0
67.05422664 210.0
83.04914126 141.0
85.06479133 153.0
105.0334912 222.0
107.0491413 247.0
109.0647913 126.0
121.0284058 191.0
123.0440559 258.0
123.0804414 185.0
125.0597059 132.0
141.0546206 125.0
151.075356 167.0
167.0702706 142.0
175.0389705 124.0
207.1015708 194.0
221.0808353 147.0
233.1172208 124.0
235.1328709 129.0
243.1015708 300.0
261.1121354 300.0
263.0914 121.0
279.1227001 151.0
END IONS

BEGIN IONS
IUPAC=Not_Added
ID=NP_ID_103898
TITLE=EnergyCombined 10eV 20eV 40eV;[M+H]+;In-silico MS/MS by CFM-ID;
PEPMASS=322.1780239
CHARGE=1+
SMILES=CC=CC(O)CC1C(=O)C=CC1(O)CCCCC1CCC(=O)O1
InChIKey=HOOVMTNOKXFQSW-UHFFFAOYNA-N
39.02292652 127.0
41.03857658 300.0
43.05422664 127.0
65.03857658 133.0
67.05422664 195.0
69.06987671 136.0
81.06987671 121.0
83.08552677 153.0
85.06479133 187.0
141.0910061 166.0
193.1223062 170.0
233.1172208 121.0
235.1328709 185.0
245.1536063 300.0
251.1277855 129.0
261.148521 123.0
261.1849065 136.0
263.164171 157.0
277.1798211 136.0
279.1954711 125.0
281.1747357 122.0
287.164171 300.0
305.1747357 183.0
323.1853004 128.0
END IONS

BEGIN IONS
IUPAC=Not_Added
ID=NP_ID_10046
TITLE=EnergyCombined 10eV 20eV 40eV;[M+H]+;In-silico MS/MS by CFM-ID;
PEPMASS=292.0946882
CHARGE=1+
SMILES=C=C1C(=O)OC2C1CC1=CC(CC3(C)OC3C2O)OC1=O
InChIKey=IQEQLGFPEMWZAG-UHFFFAOYNA-N
195.1015708 161.0
203.0702706 121.0
205.0859207 127.0
219.0651853 123.0
221.0808353 240.0
221.1172208 134.0
223.0964854 126.0
231.1015708 300.0
245.0808353 175.0
247.0964854 300.0
249.1121354 146.0
257.0808353 183.0
275.0914 300.0
293.1019647 300.0
END IONS

BEGIN IONS
IUPAC=Not_Added
ID=NP_ID_88134
TITLE=EnergyCombined 10eV 20eV 40eV;[M+H]+;In-silico MS/MS by CFM-ID;
PEPMASS=294.1103383
CHARGE=1+
SMILES=CC1C(=O)OC2CC3(C)OC3CC(O)C3=CC(OC3=O)C21
InChIKey=ITFJPAQQKHMDBK-UHFFFAOYNA-N
53.00219107 169.0
203.0702706 130.0
205.0859207 141.0
207.1015708 141.0
231.1015708 153.0
233.1172208 275.0
249.1121354 167.0
259.0964854 300.0
277.1070501 175.0
295.1176147 182.0
END IONS

BEGIN IONS
IUPAC=Not_Added
ID=NP_ID_9975
TITLE=EnergyCombined 10eV 20eV 40eV;[M+H]+;In-silico MS/MS by CFM-ID;
PEPMASS=260.104859
CHARGE=1+
SMILES=C=C1C(=O)OC2C1CC(O)C(C)=C1C(=O)C=C(C)C12
InChIKey=CXVHWWVANOUFMF-UHFFFAOYNA-N
39.02292652 291.0
41.03857658 135.0
67.01784114 134.0
119.0491413 159.0
121.0647913 233.0
171.0804414 174.0
173.0960915 174.0
175.075356 126.0
177.0910061 126.0
187.075356 125.0
189.0910061 275.0
193.0859207 127.0
199.1117415 236.0
201.0910061 152.0
207.1015708 157.0
215.1066561 300.0
217.1223062 139.0
219.1015708 130.0
225.0910061 300.0
227.0702706 196.0
231.1015708 121.0
233.1172208 144.0
243.1015708 166.0
261.1121354 300.0
END IONS

BEGIN IONS
IUPAC=Not_Added
ID=NP_ID_191157
TITLE=EnergyCombined 10eV 20eV 40eV;[M+H]+;In-silico MS/MS by CFM-ID;
PEPMASS=278.1518092
CHARGE=1+
SMILES=COC1C=C(C)C2(O)C1=C(C)CCC1C(C)C(=O)OC12
InChIKey=SFMVRVLVHOSREG-UHFFFAOYNA-N
41.03857658 149.0
43.05422664 174.0
53.00219107 150.0
53.03857658 300.0
55.05422664 240.0
81.0334912 122.0
85.06479133 123.0
151.075356 145.0
163.1117415 163.0
179.1066561 171.0
205.1223062 300.0
207.1379563 138.0
217.1223062 283.0
221.1172208 196.0
223.1328709 130.0
231.1379563 158.0
233.1536063 160.0
235.1692564 155.0
251.164171 150.0
261.148521 288.0
263.1277855 250.0
279.1590856 300.0
END IONS

BEGIN IONS
IUPAC=Not_Added
ID=NP_ID_30795
TITLE=EnergyCombined 10eV 20eV 40eV;[M+H]+;In-silico MS/MS by CFM-ID;
PEPMASS=368.2562743
CHARGE=1+
SMILES=CC(=O)CCCCCCCCCCCCCC1OC(=O)C(C)C1C(=O)O
InChIKey=SPGPUDJMXMJNCU-UHFFFAOYNA-N
41.03857658 197.0
143.0338851 132.0
193.1950772 151.0
195.2107273 300.0
219.2107273 166.0
221.2263773 164.0
225.221292 121.0
235.2056419 201.0
237.221292 126.0
239.236942 146.0
265.2162066 183.0
277.2162066 158.0
279.2318567 203.0
281.2475067 189.0
307.2267713 131.0
307.2631568 300.0
321.2424213 133.0
323.2580714 162.0
325.237336 131.0
333.2424213 258.0
369.2635507 169.0
END IONS

